seq_benchmarks/disable_inv_friends/disable_inv_friends.smt2
(set-option :print-success false)
(set-info :smt-lib-version 2.6)
(set-logic ALL)
; done setting options


(declare-datatypes ((T@$1_M2_R2 0)) ((($1_M2_R2 (|$dummy_field#$1_M2_R2| Bool) ) ) ))
(declare-sort |T@[Int]Bool| 0)
(declare-sort |T@[Int]$1_M2_R2| 0)
(declare-datatypes ((T@$Memory_9818 0)) ((($Memory_9818 (|domain#$Memory_9818| |T@[Int]Bool|) (|contents#$Memory_9818| |T@[Int]$1_M2_R2|) ) ) ))
(declare-datatypes ((T@$1_M3_R3 0)) ((($1_M3_R3 (|$dummy_field#$1_M3_R3| Bool) ) ) ))
(declare-sort |T@[Int]$1_M3_R3| 0)
(declare-datatypes ((T@$Memory_9447 0)) ((($Memory_9447 (|domain#$Memory_9447| |T@[Int]Bool|) (|contents#$Memory_9447| |T@[Int]$1_M3_R3|) ) ) ))
(declare-datatypes ((T@$Location 0)) ((($Global (|a#$Global| Int) ) ($Local (|i#$Local| Int) ) ($Param (|i#$Param| Int) ) ) ))
(declare-datatypes ((T@$Mutation_3430 0)) ((($Mutation_3430 (|l#$Mutation_3430| T@$Location) (|p#$Mutation_3430| (Seq Int)) (|v#$Mutation_3430| Int) ) ) ))
(declare-datatypes ((T@$Mutation_7803 0)) ((($Mutation_7803 (|l#$Mutation_7803| T@$Location) (|p#$Mutation_7803| (Seq Int)) (|v#$Mutation_7803| (Seq Int)) ) ) ))
(declare-datatypes ((T@$Range 0)) ((($Range (|lb#$Range| Int) (|ub#$Range| Int) ) ) ))
(declare-fun $MAX_U8 () Int)
(declare-fun $MAX_U64 () Int)
(declare-fun $MAX_U128 () Int)
(declare-fun |$IsValid'u8'| (Int) Bool)
(declare-fun |$IsValid'u64'| (Int) Bool)
(declare-fun |$IsValid'u128'| (Int) Bool)
(declare-fun |$IsValid'num'| (Int) Bool)
(declare-fun |$IsValid'address'| (Int) Bool)
(declare-fun $InRange (T@$Range Int) Bool)
(declare-fun $ConstMemoryDomain (Bool) |T@[Int]Bool|)
(declare-fun |lambda#0| (Bool) |T@[Int]Bool|)
(declare-fun $EXEC_FAILURE_CODE () Int)
(declare-fun $shl (Int Int) Int)
(declare-fun $shr (Int Int) Int)
(declare-fun |$IsValid'vec'u8''| ((Seq Int)) Bool)
(declare-fun |$IndexOfVec'u8'| ((Seq Int) Int) Int)
(declare-fun $1_Hash_sha2 ((Seq Int)) (Seq Int))
(declare-fun $1_Hash_sha3 ((Seq Int)) (Seq Int))
(declare-fun $1_Signature_$ed25519_validate_pubkey ((Seq Int)) Bool)
(declare-fun $1_Signature_$ed25519_verify ((Seq Int) (Seq Int) (Seq Int)) Bool)
(declare-fun |$IsValid'$1_M3_R3'| (T@$1_M3_R3) Bool)
(declare-fun |$IsValid'$1_M2_R2'| (T@$1_M2_R2) Bool)
(declare-fun ReverseVec_3283 ((Seq Int)) (Seq Int))
(declare-fun |Select_[$int]$bool| (|T@[Int]Bool| Int) Bool)
(assert (= $MAX_U8 255))
(assert (= $MAX_U64 18446744073709551615))
(assert (= $MAX_U128 340282366920938463463374607431768211455))
(assert (forall ((v Int) ) (! (= (|$IsValid'u8'| v)  (and (>= v 0) (<= v $MAX_U8)))
 :qid |disableinvfriendsbpl.160:23|
 :skolemid |4|
 :pattern ( (|$IsValid'u8'| v))
)))
(assert (forall ((v@@0 Int) ) (! (= (|$IsValid'u64'| v@@0)  (and (>= v@@0 0) (<= v@@0 $MAX_U64)))
 :qid |disableinvfriendsbpl.164:24|
 :skolemid |5|
 :pattern ( (|$IsValid'u64'| v@@0))
)))
(assert (forall ((v@@1 Int) ) (! (= (|$IsValid'u128'| v@@1)  (and (>= v@@1 0) (<= v@@1 $MAX_U128)))
 :qid |disableinvfriendsbpl.168:25|
 :skolemid |6|
 :pattern ( (|$IsValid'u128'| v@@1))
)))
(assert (forall ((v@@2 Int) ) (! (= (|$IsValid'num'| v@@2) true)
 :qid |disableinvfriendsbpl.172:24|
 :skolemid |7|
 :pattern ( (|$IsValid'num'| v@@2))
)))
(assert (forall ((v@@3 Int) ) (! (= (|$IsValid'address'| v@@3) (>= v@@3 0))
 :qid |disableinvfriendsbpl.176:28|
 :skolemid |8|
 :pattern ( (|$IsValid'address'| v@@3))
)))
(assert (forall ((r T@$Range) (i Int) ) (! (= ($InRange r i)  (and (<= (|lb#$Range| r) i) (< i (|ub#$Range| r))))
 :qid |disableinvfriendsbpl.186:19|
 :skolemid |9|
 :pattern ( ($InRange r i))
)))
(assert (= ($ConstMemoryDomain false) (|lambda#0| false)))
(assert (= ($ConstMemoryDomain true) (|lambda#0| true)))
(assert (= $EXEC_FAILURE_CODE (- 0 1)))
(assert (forall ((src1 Int) (p Int) ) (! (= ($shl src1 p) (ite (= p 8) (* src1 256) (ite (= p 16) (* src1 65536) (ite (= p 32) (* src1 4294967296) (ite (= p 64) (* src1 18446744073709551616) (- 0 1))))))
 :qid |disableinvfriendsbpl.452:15|
 :skolemid |13|
 :pattern ( ($shl src1 p))
)))
(assert (forall ((src1@@0 Int) (p@@0 Int) ) (! (= ($shr src1@@0 p@@0) (ite (= p@@0 8) (div src1@@0 256) (ite (= p@@0 16) (div src1@@0 65536) (ite (= p@@0 32) (div src1@@0 4294967296) (ite (= p@@0 64) (div src1@@0 18446744073709551616) (- 0 1))))))
 :qid |disableinvfriendsbpl.461:15|
 :skolemid |14|
 :pattern ( ($shr src1@@0 p@@0))
)))
(assert (forall ((v@@4 (Seq Int)) ) (! (= (|$IsValid'vec'u8''| v@@4)  (and (|$IsValid'u64'| (seq.len v@@4)) (forall ((i@@0 Int) ) (!  (=> (and (>= i@@0 0) (< i@@0 (seq.len v@@4))) (|$IsValid'u8'| (seq.nth v@@4 i@@0)))
 :qid |disableinvfriendsbpl.590:13|
 :skolemid |15|
))))
 :qid |disableinvfriendsbpl.588:28|
 :skolemid |16|
 :pattern ( (|$IsValid'vec'u8''| v@@4))
)))
(assert (forall ((v@@5 (Seq Int)) (e Int) ) (! (let ((i@@1 (|$IndexOfVec'u8'| v@@5 e)))
(ite  (not (exists ((i@@2 Int) ) (!  (and (and (|$IsValid'u64'| i@@2) (and (>= i@@2 0) (< i@@2 (seq.len v@@5)))) (= (seq.nth v@@5 i@@2) e))
 :qid |disableinvfriendsbpl.595:13|
 :skolemid |17|
))) (= i@@1 (- 0 1))  (and (and (and (|$IsValid'u64'| i@@1) (and (>= i@@1 0) (< i@@1 (seq.len v@@5)))) (= (seq.nth v@@5 i@@1) e)) (forall ((j Int) ) (!  (=> (and (and (|$IsValid'u64'| j) (>= j 0)) (< j i@@1)) (not (= (seq.nth v@@5 j) e)))
 :qid |disableinvfriendsbpl.603:17|
 :skolemid |18|
)))))
 :qid |disableinvfriendsbpl.599:15|
 :skolemid |19|
 :pattern ( (|$IndexOfVec'u8'| v@@5 e))
)))
(assert (forall ((v1 (Seq Int)) (v2 (Seq Int)) ) (! (= (= v1 v2) (= ($1_Hash_sha2 v1) ($1_Hash_sha2 v2)))
 :qid |disableinvfriendsbpl.776:15|
 :skolemid |20|
 :pattern ( ($1_Hash_sha2 v1) ($1_Hash_sha2 v2))
)))
(assert (forall ((v1@@0 (Seq Int)) (v2@@0 (Seq Int)) ) (! (= (= v1@@0 v2@@0) (= ($1_Hash_sha3 v1@@0) ($1_Hash_sha3 v2@@0)))
 :qid |disableinvfriendsbpl.792:15|
 :skolemid |21|
 :pattern ( ($1_Hash_sha3 v1@@0) ($1_Hash_sha3 v2@@0))
)))
(assert (forall ((k1 (Seq Int)) (k2 (Seq Int)) ) (!  (=> (= k1 k2) (= ($1_Signature_$ed25519_validate_pubkey k1) ($1_Signature_$ed25519_validate_pubkey k2)))
 :qid |disableinvfriendsbpl.839:15|
 :skolemid |22|
 :pattern ( ($1_Signature_$ed25519_validate_pubkey k1) ($1_Signature_$ed25519_validate_pubkey k2))
)))
(assert (forall ((s1 (Seq Int)) (s2 (Seq Int)) (k1@@0 (Seq Int)) (k2@@0 (Seq Int)) (m1 (Seq Int)) (m2 (Seq Int)) ) (!  (=> (and (and (= s1 s2) (= k1@@0 k2@@0)) (= m1 m2)) (= ($1_Signature_$ed25519_verify s1 k1@@0 m1) ($1_Signature_$ed25519_verify s2 k2@@0 m2)))
 :qid |disableinvfriendsbpl.842:15|
 :skolemid |23|
 :pattern ( ($1_Signature_$ed25519_verify s1 k1@@0 m1) ($1_Signature_$ed25519_verify s2 k2@@0 m2))
)))
(assert (forall ((s T@$1_M3_R3) ) (! (= (|$IsValid'$1_M3_R3'| s) true)
 :qid |disableinvfriendsbpl.906:29|
 :skolemid |24|
 :pattern ( (|$IsValid'$1_M3_R3'| s))
)))
(assert (forall ((s@@0 T@$1_M2_R2) ) (! (= (|$IsValid'$1_M2_R2'| s@@0) true)
 :qid |disableinvfriendsbpl.1000:29|
 :skolemid |26|
 :pattern ( (|$IsValid'$1_M2_R2'| s@@0))
)))
(assert (forall ((v@@6 (Seq Int)) ) (! (let ((r@@0 (ReverseVec_3283 v@@6)))
 (and (= (seq.len r@@0) (seq.len v@@6)) (forall ((i@@3 Int) ) (!  (=> (and (>= i@@3 0) (< i@@3 (seq.len r@@0))) (= (seq.nth r@@0 i@@3) (seq.nth v@@6 (- (- (seq.len v@@6) i@@3) 1))))
 :qid |disableinvfriendsbpl.67:18|
 :skolemid |0|
 :pattern ( (seq.nth r@@0 i@@3))
))))
 :qid |disableinvfriendsbpl.64:32|
 :skolemid |1|
 :pattern ( (ReverseVec_3283 v@@6))
)))
(assert (forall ((|l#0| Bool) (i@@4 Int) ) (! (= (|Select_[$int]$bool| (|lambda#0| |l#0|) i@@4) |l#0|)
 :qid |disableinvfriendsbpl.245:54|
 :skolemid |36|
 :pattern ( (|Select_[$int]$bool| (|lambda#0| |l#0|) i@@4))
)))
(declare-fun ControlFlow (Int Int) Int)
(declare-fun $abort_flag@0 () Bool)
(declare-fun $1_M3_R3_$memory@1 () T@$Memory_9447)
(declare-fun _$t0 () Int)
(declare-fun $1_M3_R3_$memory () T@$Memory_9447)
(declare-fun $abort_code@1 () Int)
(declare-fun $1_M3_R3_$memory@0 () T@$Memory_9447)
(declare-fun |Store_[$int]$bool| (|T@[Int]Bool| Int Bool) |T@[Int]Bool|)
(assert (forall ( ( ?x0 |T@[Int]Bool|) ( ?x1 Int) ( ?x2 Bool)) (= (|Select_[$int]$bool| (|Store_[$int]$bool| ?x0 ?x1 ?x2) ?x1)  ?x2)))
(assert (forall ( ( ?x0 |T@[Int]Bool|) ( ?x1 Int) ( ?y1 Int) ( ?x2 Bool)) (=>  (not (= ?x1 ?y1)) (= (|Select_[$int]$bool| (|Store_[$int]$bool| ?x0 ?x1 ?x2) ?y1) (|Select_[$int]$bool| ?x0 ?y1)))))
(declare-fun |Store_[$int]$1_M3_R3| (|T@[Int]$1_M3_R3| Int T@$1_M3_R3) |T@[Int]$1_M3_R3|)
(declare-fun |Select_[$int]$1_M3_R3| (|T@[Int]$1_M3_R3| Int) T@$1_M3_R3)
(assert (forall ( ( ?x0 |T@[Int]$1_M3_R3|) ( ?x1 Int) ( ?x2 T@$1_M3_R3)) (= (|Select_[$int]$1_M3_R3| (|Store_[$int]$1_M3_R3| ?x0 ?x1 ?x2) ?x1)  ?x2)))
(assert (forall ( ( ?x0 |T@[Int]$1_M3_R3|) ( ?x1 Int) ( ?y1 Int) ( ?x2 T@$1_M3_R3)) (=>  (not (= ?x1 ?y1)) (= (|Select_[$int]$1_M3_R3| (|Store_[$int]$1_M3_R3| ?x0 ?x1 ?x2) ?y1) (|Select_[$int]$1_M3_R3| ?x0 ?y1)))))
(declare-fun $t2@0 () T@$1_M3_R3)
(declare-fun $abort_code@0 () Int)
(declare-fun $1_M3_R3_$modifies () |T@[Int]Bool|)
(push 1)
(set-info :boogie-vc-id $1_M3_f3$verify)
(assert (not
 (=> (= (ControlFlow 0 0) 12531) (let ((anon8_Else_correct  (=> (and (not $abort_flag@0) (= (ControlFlow 0 11422) (- 0 12731))) (|Select_[$int]$bool| (|domain#$Memory_9447| $1_M3_R3_$memory@1) _$t0))))
(let ((anon8_Then_correct true))
(let ((anon7_Then$1_correct  (=> (= $1_M3_R3_$memory@1 $1_M3_R3_$memory) (=> (and (= $abort_flag@0 true) (= $abort_code@1 $EXEC_FAILURE_CODE)) (and (=> (= (ControlFlow 0 11490) 11440) anon8_Then_correct) (=> (= (ControlFlow 0 11490) 11422) anon8_Else_correct))))))
(let ((anon7_Then_correct  (=> (and (|Select_[$int]$bool| (|domain#$Memory_9447| $1_M3_R3_$memory) _$t0) (= (ControlFlow 0 11488) 11490)) anon7_Then$1_correct)))
(let ((anon7_Else_correct  (=> (not (|Select_[$int]$bool| (|domain#$Memory_9447| $1_M3_R3_$memory) _$t0)) (=> (and (and (= $1_M3_R3_$memory@0 ($Memory_9447 (|Store_[$int]$bool| (|domain#$Memory_9447| $1_M3_R3_$memory) _$t0 true) (|Store_[$int]$1_M3_R3| (|contents#$Memory_9447| $1_M3_R3_$memory) _$t0 $t2@0))) (= $1_M3_R3_$memory@1 $1_M3_R3_$memory@0)) (and (= $abort_flag@0 false) (= $abort_code@1 $abort_code@0))) (and (=> (= (ControlFlow 0 11402) 11440) anon8_Then_correct) (=> (= (ControlFlow 0 11402) 11422) anon8_Else_correct))))))
(let ((anon0$1_correct  (=> (|$IsValid'address'| _$t0) (=> (and (and (forall (($a_0 Int) ) (! (let (($rsc (|Select_[$int]$1_M3_R3| (|contents#$Memory_9447| $1_M3_R3_$memory) $a_0)))
(|$IsValid'$1_M3_R3'| $rsc))
 :qid |disableinvfriendsbpl.935:20|
 :skolemid |25|
 :pattern ( (|Select_[$int]$1_M3_R3| (|contents#$Memory_9447| $1_M3_R3_$memory) $a_0))
)) (|Select_[$int]$bool| $1_M3_R3_$modifies _$t0)) (and (= _$t0 _$t0) (= $t2@0 ($1_M3_R3 false)))) (and (=> (= (ControlFlow 0 11384) (- 0 12639)) (|Select_[$int]$bool| $1_M3_R3_$modifies _$t0)) (=> (|Select_[$int]$bool| $1_M3_R3_$modifies _$t0) (and (=> (= (ControlFlow 0 11384) 11488) anon7_Then_correct) (=> (= (ControlFlow 0 11384) 11402) anon7_Else_correct))))))))
(let ((anon0_correct  (=> (= (ControlFlow 0 12531) 11384) anon0$1_correct)))
anon0_correct))))))))
))
(check-sat)
(pop 1)
; Valid
(declare-fun $abort_flag@0@@0 () Bool)
(declare-fun $1_M2_R2_$memory@1 () T@$Memory_9818)
(declare-fun _$t0@@0 () Int)
(declare-fun $1_M2_R2_$memory () T@$Memory_9818)
(declare-fun $abort_code@1@@0 () Int)
(declare-fun $1_M2_R2_$memory@0 () T@$Memory_9818)
(declare-fun |Store_[$int]$1_M2_R2| (|T@[Int]$1_M2_R2| Int T@$1_M2_R2) |T@[Int]$1_M2_R2|)
(declare-fun |Select_[$int]$1_M2_R2| (|T@[Int]$1_M2_R2| Int) T@$1_M2_R2)
(assert (forall ( ( ?x0 |T@[Int]$1_M2_R2|) ( ?x1 Int) ( ?x2 T@$1_M2_R2)) (= (|Select_[$int]$1_M2_R2| (|Store_[$int]$1_M2_R2| ?x0 ?x1 ?x2) ?x1)  ?x2)))
(assert (forall ( ( ?x0 |T@[Int]$1_M2_R2|) ( ?x1 Int) ( ?y1 Int) ( ?x2 T@$1_M2_R2)) (=>  (not (= ?x1 ?y1)) (= (|Select_[$int]$1_M2_R2| (|Store_[$int]$1_M2_R2| ?x0 ?x1 ?x2) ?y1) (|Select_[$int]$1_M2_R2| ?x0 ?y1)))))
(declare-fun $t2@0@@0 () T@$1_M2_R2)
(declare-fun $abort_code@0@@0 () Int)
(declare-fun $1_M2_R2_$modifies () |T@[Int]Bool|)
(push 1)
(set-info :boogie-vc-id $1_M2_f2$verify)
(assert (not
 (=> (= (ControlFlow 0 0) 12761) (let ((anon8_Else_correct@@0  (=> (and (not $abort_flag@0@@0) (= (ControlFlow 0 11663) (- 0 12961))) (|Select_[$int]$bool| (|domain#$Memory_9818| $1_M2_R2_$memory@1) _$t0@@0))))
(let ((anon8_Then_correct@@0 true))
(let ((anon7_Then$1_correct@@0  (=> (= $1_M2_R2_$memory@1 $1_M2_R2_$memory) (=> (and (= $abort_flag@0@@0 true) (= $abort_code@1@@0 $EXEC_FAILURE_CODE)) (and (=> (= (ControlFlow 0 11731) 11681) anon8_Then_correct@@0) (=> (= (ControlFlow 0 11731) 11663) anon8_Else_correct@@0))))))
(let ((anon7_Then_correct@@0  (=> (and (|Select_[$int]$bool| (|domain#$Memory_9818| $1_M2_R2_$memory) _$t0@@0) (= (ControlFlow 0 11729) 11731)) anon7_Then$1_correct@@0)))
(let ((anon7_Else_correct@@0  (=> (not (|Select_[$int]$bool| (|domain#$Memory_9818| $1_M2_R2_$memory) _$t0@@0)) (=> (and (and (= $1_M2_R2_$memory@0 ($Memory_9818 (|Store_[$int]$bool| (|domain#$Memory_9818| $1_M2_R2_$memory) _$t0@@0 true) (|Store_[$int]$1_M2_R2| (|contents#$Memory_9818| $1_M2_R2_$memory) _$t0@@0 $t2@0@@0))) (= $1_M2_R2_$memory@1 $1_M2_R2_$memory@0)) (and (= $abort_flag@0@@0 false) (= $abort_code@1@@0 $abort_code@0@@0))) (and (=> (= (ControlFlow 0 11643) 11681) anon8_Then_correct@@0) (=> (= (ControlFlow 0 11643) 11663) anon8_Else_correct@@0))))))
(let ((anon0$1_correct@@0  (=> (|$IsValid'address'| _$t0@@0) (=> (and (and (forall (($a_0@@0 Int) ) (! (let (($rsc@@0 (|Select_[$int]$1_M2_R2| (|contents#$Memory_9818| $1_M2_R2_$memory) $a_0@@0)))
(|$IsValid'$1_M2_R2'| $rsc@@0))
 :qid |disableinvfriendsbpl.1029:20|
 :skolemid |27|
 :pattern ( (|Select_[$int]$1_M2_R2| (|contents#$Memory_9818| $1_M2_R2_$memory) $a_0@@0))
)) (|Select_[$int]$bool| $1_M2_R2_$modifies _$t0@@0)) (and (= _$t0@@0 _$t0@@0) (= $t2@0@@0 ($1_M2_R2 false)))) (and (=> (= (ControlFlow 0 11625) (- 0 12869)) (|Select_[$int]$bool| $1_M2_R2_$modifies _$t0@@0)) (=> (|Select_[$int]$bool| $1_M2_R2_$modifies _$t0@@0) (and (=> (= (ControlFlow 0 11625) 11729) anon7_Then_correct@@0) (=> (= (ControlFlow 0 11625) 11643) anon7_Else_correct@@0))))))))
(let ((anon0_correct@@0  (=> (= (ControlFlow 0 12761) 11625) anon0$1_correct@@0)))
anon0_correct@@0))))))))
))
(check-sat)
(pop 1)
; Valid
(declare-fun $1_M3_R3_$memory@2 () T@$Memory_9447)
(declare-fun _$t0@@1 () Int)
(declare-fun $1_M2_R2_$memory@2 () T@$Memory_9818)
(declare-fun |$temp_0'bool'@1| () Bool)
(declare-fun $1_M3_R3_$memory@1@@0 () T@$Memory_9447)
(declare-fun $1_M3_R3_$memory@0@@0 () T@$Memory_9447)
(declare-fun |$temp_0'$1_M3_R3'@0| () T@$1_M3_R3)
(declare-fun $t3@0 () Bool)
(declare-fun $1_M3_R3_$modifies@@0 () |T@[Int]Bool|)
(declare-fun |$temp_0'bool'@0| () Bool)
(declare-fun $1_M2_R2_$memory@1@@0 () T@$Memory_9818)
(declare-fun $1_M2_R2_$memory@0@@0 () T@$Memory_9818)
(declare-fun |$temp_0'$1_M2_R2'@0| () T@$1_M2_R2)
(declare-fun $t1@0 () Bool)
(declare-fun $1_M2_R2_$modifies@@0 () |T@[Int]Bool|)
(push 1)
(set-info :boogie-vc-id $1_M1_f1$verify)
(assert (not
 (=> (= (ControlFlow 0 0) 12975) (let ((anon10_correct  (=> (and (|Select_[$int]$bool| (|domain#$Memory_9447| $1_M3_R3_$memory@2) _$t0@@1) (= (ControlFlow 0 12020) (- 0 13282))) (forall ((addr Int) ) (!  (=> (|$IsValid'address'| addr) (=> (|Select_[$int]$bool| (|domain#$Memory_9447| $1_M3_R3_$memory@2) addr) (|Select_[$int]$bool| (|domain#$Memory_9818| $1_M2_R2_$memory@2) addr)))
 :qid |disableinvfriendsbpl.1232:15|
 :skolemid |31|
)))))
(let ((anon14_Else_correct  (=> (and (and (not |$temp_0'bool'@1|) (= $1_M3_R3_$memory@1@@0 ($Memory_9447 (|Store_[$int]$bool| (|domain#$Memory_9447| $1_M3_R3_$memory) _$t0@@1 false) (|contents#$Memory_9447| $1_M3_R3_$memory)))) (and (= $1_M3_R3_$memory@2 $1_M3_R3_$memory@1@@0) (= (ControlFlow 0 11981) 12020))) anon10_correct)))
(let ((anon14_Then_correct  (=> (and (and |$temp_0'bool'@1| (= $1_M3_R3_$memory@0@@0 ($Memory_9447 (|Store_[$int]$bool| (|domain#$Memory_9447| $1_M3_R3_$memory) _$t0@@1 true) (|Store_[$int]$1_M3_R3| (|contents#$Memory_9447| $1_M3_R3_$memory) _$t0@@1 |$temp_0'$1_M3_R3'@0|)))) (and (= $1_M3_R3_$memory@2 $1_M3_R3_$memory@0@@0) (= (ControlFlow 0 12034) 12020))) anon10_correct)))
(let ((anon13_Else_correct  (=> (not $t3@0) (and (=> (= (ControlFlow 0 11967) 12034) anon14_Then_correct) (=> (= (ControlFlow 0 11967) 11981) anon14_Else_correct)))))
(let ((anon13_Then_correct true))
(let ((anon5_correct  (=> (|Select_[$int]$bool| (|domain#$Memory_9818| $1_M2_R2_$memory@2) _$t0@@1) (and (=> (= (ControlFlow 0 11961) (- 0 13197)) (|Select_[$int]$bool| $1_M3_R3_$modifies@@0 _$t0@@1)) (=> (|Select_[$int]$bool| $1_M3_R3_$modifies@@0 _$t0@@1) (and (=> (= (ControlFlow 0 11961) 12046) anon13_Then_correct) (=> (= (ControlFlow 0 11961) 11967) anon13_Else_correct)))))))
(let ((anon12_Else_correct  (=> (and (and (not |$temp_0'bool'@0|) (= $1_M2_R2_$memory@1@@0 ($Memory_9818 (|Store_[$int]$bool| (|domain#$Memory_9818| $1_M2_R2_$memory) _$t0@@1 false) (|contents#$Memory_9818| $1_M2_R2_$memory)))) (and (= $1_M2_R2_$memory@2 $1_M2_R2_$memory@1@@0) (= (ControlFlow 0 11937) 11961))) anon5_correct)))
(let ((anon12_Then_correct  (=> (and (and |$temp_0'bool'@0| (= $1_M2_R2_$memory@0@@0 ($Memory_9818 (|Store_[$int]$bool| (|domain#$Memory_9818| $1_M2_R2_$memory) _$t0@@1 true) (|Store_[$int]$1_M2_R2| (|contents#$Memory_9818| $1_M2_R2_$memory) _$t0@@1 |$temp_0'$1_M2_R2'@0|)))) (and (= $1_M2_R2_$memory@2 $1_M2_R2_$memory@0@@0) (= (ControlFlow 0 12066) 11961))) anon5_correct)))
(let ((anon11_Else_correct  (=> (not $t1@0) (and (=> (= (ControlFlow 0 11923) 12066) anon12_Then_correct) (=> (= (ControlFlow 0 11923) 11937) anon12_Else_correct)))))
(let ((anon11_Then_correct true))
(let ((anon0$1_correct@@1  (=> (forall ((addr@@0 Int) ) (!  (=> (|$IsValid'address'| addr@@0) (=> (|Select_[$int]$bool| (|domain#$Memory_9447| $1_M3_R3_$memory) addr@@0) (|Select_[$int]$bool| (|domain#$Memory_9818| $1_M2_R2_$memory) addr@@0)))
 :qid |disableinvfriendsbpl.1111:20|
 :skolemid |28|
)) (=> (and (|$IsValid'address'| _$t0@@1) (forall (($a_0@@1 Int) ) (! (let (($rsc@@1 (|Select_[$int]$1_M3_R3| (|contents#$Memory_9447| $1_M3_R3_$memory) $a_0@@1)))
(|$IsValid'$1_M3_R3'| $rsc@@1))
 :qid |disableinvfriendsbpl.1117:20|
 :skolemid |29|
 :pattern ( (|Select_[$int]$1_M3_R3| (|contents#$Memory_9447| $1_M3_R3_$memory) $a_0@@1))
))) (=> (and (and (forall (($a_0@@2 Int) ) (! (let (($rsc@@2 (|Select_[$int]$1_M2_R2| (|contents#$Memory_9818| $1_M2_R2_$memory) $a_0@@2)))
(|$IsValid'$1_M2_R2'| $rsc@@2))
 :qid |disableinvfriendsbpl.1121:20|
 :skolemid |30|
 :pattern ( (|Select_[$int]$1_M2_R2| (|contents#$Memory_9818| $1_M2_R2_$memory) $a_0@@2))
)) (|Select_[$int]$bool| $1_M2_R2_$modifies@@0 _$t0@@1)) (and (|Select_[$int]$bool| $1_M3_R3_$modifies@@0 _$t0@@1) (= _$t0@@1 _$t0@@1))) (and (=> (= (ControlFlow 0 11917) (- 0 13115)) (|Select_[$int]$bool| $1_M2_R2_$modifies@@0 _$t0@@1)) (=> (|Select_[$int]$bool| $1_M2_R2_$modifies@@0 _$t0@@1) (and (=> (= (ControlFlow 0 11917) 12078) anon11_Then_correct) (=> (= (ControlFlow 0 11917) 11923) anon11_Else_correct)))))))))
(let ((anon0_correct@@1  (=> (= (ControlFlow 0 12975) 11917) anon0$1_correct@@1)))
anon0_correct@@1)))))))))))))
))
(check-sat)
(pop 1)
; Valid
(declare-fun $1_M2_R2_$memory@2@@0 () T@$Memory_9818)
(declare-fun _$t0@@2 () Int)
(declare-fun $1_M3_R3_$memory@2@@0 () T@$Memory_9447)
(declare-fun |$temp_0'bool'@1@@0| () Bool)
(declare-fun $1_M2_R2_$memory@1@@1 () T@$Memory_9818)
(declare-fun $1_M2_R2_$memory@0@@1 () T@$Memory_9818)
(declare-fun |$temp_0'$1_M2_R2'@0@@0| () T@$1_M2_R2)
(declare-fun $t3@0@@0 () Bool)
(declare-fun $1_M2_R2_$modifies@@1 () |T@[Int]Bool|)
(declare-fun |$temp_0'bool'@0@@0| () Bool)
(declare-fun $1_M3_R3_$memory@1@@1 () T@$Memory_9447)
(declare-fun $1_M3_R3_$memory@0@@1 () T@$Memory_9447)
(declare-fun |$temp_0'$1_M3_R3'@0@@0| () T@$1_M3_R3)
(declare-fun $t1@0@@0 () Bool)
(declare-fun $1_M3_R3_$modifies@@1 () |T@[Int]Bool|)
(push 1)
(set-info :boogie-vc-id $1_M4_f4$verify)
(assert (not
 (=> (= (ControlFlow 0 0) 13320) (let ((anon10_correct@@0  (=> (and (|Select_[$int]$bool| (|domain#$Memory_9818| $1_M2_R2_$memory@2@@0) _$t0@@2) (= (ControlFlow 0 12386) (- 0 13627))) (forall ((addr@@1 Int) ) (!  (=> (|$IsValid'address'| addr@@1) (=> (|Select_[$int]$bool| (|domain#$Memory_9447| $1_M3_R3_$memory@2@@0) addr@@1) (|Select_[$int]$bool| (|domain#$Memory_9818| $1_M2_R2_$memory@2@@0) addr@@1)))
 :qid |disableinvfriendsbpl.1392:15|
 :skolemid |35|
)))))
(let ((anon14_Else_correct@@0  (=> (and (and (not |$temp_0'bool'@1@@0|) (= $1_M2_R2_$memory@1@@1 ($Memory_9818 (|Store_[$int]$bool| (|domain#$Memory_9818| $1_M2_R2_$memory) _$t0@@2 false) (|contents#$Memory_9818| $1_M2_R2_$memory)))) (and (= $1_M2_R2_$memory@2@@0 $1_M2_R2_$memory@1@@1) (= (ControlFlow 0 12347) 12386))) anon10_correct@@0)))
(let ((anon14_Then_correct@@0  (=> (and (and |$temp_0'bool'@1@@0| (= $1_M2_R2_$memory@0@@1 ($Memory_9818 (|Store_[$int]$bool| (|domain#$Memory_9818| $1_M2_R2_$memory) _$t0@@2 true) (|Store_[$int]$1_M2_R2| (|contents#$Memory_9818| $1_M2_R2_$memory) _$t0@@2 |$temp_0'$1_M2_R2'@0@@0|)))) (and (= $1_M2_R2_$memory@2@@0 $1_M2_R2_$memory@0@@1) (= (ControlFlow 0 12400) 12386))) anon10_correct@@0)))
(let ((anon13_Else_correct@@0  (=> (not $t3@0@@0) (and (=> (= (ControlFlow 0 12333) 12400) anon14_Then_correct@@0) (=> (= (ControlFlow 0 12333) 12347) anon14_Else_correct@@0)))))
(let ((anon13_Then_correct@@0 true))
(let ((anon5_correct@@0  (=> (|Select_[$int]$bool| (|domain#$Memory_9447| $1_M3_R3_$memory@2@@0) _$t0@@2) (and (=> (= (ControlFlow 0 12327) (- 0 13542)) (|Select_[$int]$bool| $1_M2_R2_$modifies@@1 _$t0@@2)) (=> (|Select_[$int]$bool| $1_M2_R2_$modifies@@1 _$t0@@2) (and (=> (= (ControlFlow 0 12327) 12412) anon13_Then_correct@@0) (=> (= (ControlFlow 0 12327) 12333) anon13_Else_correct@@0)))))))
(let ((anon12_Else_correct@@0  (=> (and (and (not |$temp_0'bool'@0@@0|) (= $1_M3_R3_$memory@1@@1 ($Memory_9447 (|Store_[$int]$bool| (|domain#$Memory_9447| $1_M3_R3_$memory) _$t0@@2 false) (|contents#$Memory_9447| $1_M3_R3_$memory)))) (and (= $1_M3_R3_$memory@2@@0 $1_M3_R3_$memory@1@@1) (= (ControlFlow 0 12303) 12327))) anon5_correct@@0)))
(let ((anon12_Then_correct@@0  (=> (and (and |$temp_0'bool'@0@@0| (= $1_M3_R3_$memory@0@@1 ($Memory_9447 (|Store_[$int]$bool| (|domain#$Memory_9447| $1_M3_R3_$memory) _$t0@@2 true) (|Store_[$int]$1_M3_R3| (|contents#$Memory_9447| $1_M3_R3_$memory) _$t0@@2 |$temp_0'$1_M3_R3'@0@@0|)))) (and (= $1_M3_R3_$memory@2@@0 $1_M3_R3_$memory@0@@1) (= (ControlFlow 0 12432) 12327))) anon5_correct@@0)))
(let ((anon11_Else_correct@@0  (=> (not $t1@0@@0) (and (=> (= (ControlFlow 0 12289) 12432) anon12_Then_correct@@0) (=> (= (ControlFlow 0 12289) 12303) anon12_Else_correct@@0)))))
(let ((anon11_Then_correct@@0 true))
(let ((anon0$1_correct@@2  (=> (forall ((addr@@2 Int) ) (!  (=> (|$IsValid'address'| addr@@2) (=> (|Select_[$int]$bool| (|domain#$Memory_9447| $1_M3_R3_$memory) addr@@2) (|Select_[$int]$bool| (|domain#$Memory_9818| $1_M2_R2_$memory) addr@@2)))
 :qid |disableinvfriendsbpl.1271:20|
 :skolemid |32|
)) (=> (and (|$IsValid'address'| _$t0@@2) (forall (($a_0@@3 Int) ) (! (let (($rsc@@3 (|Select_[$int]$1_M3_R3| (|contents#$Memory_9447| $1_M3_R3_$memory) $a_0@@3)))
(|$IsValid'$1_M3_R3'| $rsc@@3))
 :qid |disableinvfriendsbpl.1277:20|
 :skolemid |33|
 :pattern ( (|Select_[$int]$1_M3_R3| (|contents#$Memory_9447| $1_M3_R3_$memory) $a_0@@3))
))) (=> (and (and (forall (($a_0@@4 Int) ) (! (let (($rsc@@4 (|Select_[$int]$1_M2_R2| (|contents#$Memory_9818| $1_M2_R2_$memory) $a_0@@4)))
(|$IsValid'$1_M2_R2'| $rsc@@4))
 :qid |disableinvfriendsbpl.1281:20|
 :skolemid |34|
 :pattern ( (|Select_[$int]$1_M2_R2| (|contents#$Memory_9818| $1_M2_R2_$memory) $a_0@@4))
)) (|Select_[$int]$bool| $1_M2_R2_$modifies@@1 _$t0@@2)) (and (|Select_[$int]$bool| $1_M3_R3_$modifies@@1 _$t0@@2) (= _$t0@@2 _$t0@@2))) (and (=> (= (ControlFlow 0 12283) (- 0 13460)) (|Select_[$int]$bool| $1_M3_R3_$modifies@@1 _$t0@@2)) (=> (|Select_[$int]$bool| $1_M3_R3_$modifies@@1 _$t0@@2) (and (=> (= (ControlFlow 0 12283) 12444) anon11_Then_correct@@0) (=> (= (ControlFlow 0 12283) 12289) anon11_Else_correct@@0)))))))))
(let ((anon0_correct@@2  (=> (= (ControlFlow 0 13320) 12283) anon0$1_correct@@2)))
anon0_correct@@2)))))))))))))
))
(check-sat)
(pop 1)
; Valid
